\* 2D problem *\
Minimize
altezza_da_minimizzare: D
Subject To
_C1: b01 + b10 + l01 + l10 >= 1
_C10: b04 + b40 + l04 + l40 >= 1
_C11: 370 l40 + x0 - x4 <= 250
_C12: 400 b40 + y0 - y4 <= 320
_C13: x0 <= 130
_C14: - D + y0 <= -80
_C15: 370 l01 - x0 + x1 <= 250
_C16: 400 b01 - y0 + y1 <= 320
_C17: b12 + b21 + l12 + l21 >= 1
_C18: 370 l21 + x1 - x2 <= 250
_C19: 400 b21 + y1 - y2 <= 320
_C2: 370 l10 + x0 - x1 <= 250
_C20: b13 + b31 + l13 + l31 >= 1
_C21: 370 l31 + x1 - x3 <= 250
_C22: 400 b31 + y1 - y3 <= 320
_C23: b14 + b41 + l14 + l41 >= 1
_C24: 370 l41 + x1 - x4 <= 250
_C25: 400 b41 + y1 - y4 <= 320
_C26: x1 <= 130
_C27: - D + y1 <= -80
_C28: 370 l02 - x0 + x2 <= 250
_C29: 400 b02 - y0 + y2 <= 320
_C3: 400 b10 + y0 - y1 <= 320
_C30: 370 l12 - x1 + x2 <= 250
_C31: 400 b12 - y1 + y2 <= 320
_C32: b23 + b32 + l23 + l32 >= 1
_C33: 370 l32 + x2 - x3 <= 250
_C34: 400 b32 + y2 - y3 <= 320
_C35: b24 + b42 + l24 + l42 >= 1
_C36: 370 l42 + x2 - x4 <= 250
_C37: 400 b42 + y2 - y4 <= 320
_C38: x2 <= 130
_C39: - D + y2 <= -80
_C4: b02 + b20 + l02 + l20 >= 1
_C40: 370 l03 - x0 + x3 <= 250
_C41: 400 b03 - y0 + y3 <= 320
_C42: 370 l13 - x1 + x3 <= 250
_C43: 400 b13 - y1 + y3 <= 320
_C44: 370 l23 - x2 + x3 <= 250
_C45: 400 b23 - y2 + y3 <= 320
_C46: b34 + b43 + l34 + l43 >= 1
_C47: 370 l43 + x3 - x4 <= 250
_C48: 400 b43 + y3 - y4 <= 320
_C49: x3 <= 130
_C5: 370 l20 + x0 - x2 <= 250
_C50: - D + y3 <= -80
_C51: 370 l04 - x0 + x4 <= 250
_C52: 400 b04 - y0 + y4 <= 320
_C53: 370 l14 - x1 + x4 <= 250
_C54: 400 b14 - y1 + y4 <= 320
_C55: 370 l24 - x2 + x4 <= 250
_C56: 400 b24 - y2 + y4 <= 320
_C57: 370 l34 - x3 + x4 <= 250
_C58: 400 b34 - y3 + y4 <= 320
_C59: x4 <= 130
_C6: 400 b20 + y0 - y2 <= 320
_C60: - D + y4 <= -80
_C7: b03 + b30 + l03 + l30 >= 1
_C8: 370 l30 + x0 - x3 <= 250
_C9: 400 b30 + y0 - y3 <= 320
Bounds
0 <= D
0 <= x0
0 <= x1
0 <= x2
0 <= x3
0 <= x4
0 <= y0
0 <= y1
0 <= y2
0 <= y3
0 <= y4
Generals
D
x0
x1
x2
x3
x4
y0
y1
y2
y3
y4
Binaries
b01
b02
b03
b04
b10
b12
b13
b14
b20
b21
b23
b24
b30
b31
b32
b34
b40
b41
b42
b43
l01
l02
l03
l04
l10
l12
l13
l14
l20
l21
l23
l24
l30
l31
l32
l34
l40
l41
l42
l43
End
